\ENCODING=ISO-8859-1
\Problem name: bSARP

Maximize
 obj: - 19 x(0,10,0) - 19 x(0,10,1) - 14 x(0,11,0) - 14 x(0,11,1)
      - 15 x(0,12,0) - 15 x(0,12,1) - 30 x(0,13,0) - 30 x(0,13,1)
      - 35 x(0,14,0) - 35 x(0,14,1) - 29 x(1,10,0) - 29 x(1,10,1)
      - 25 x(1,11,0) - 25 x(1,11,1) - 26 x(1,12,0) - 26 x(1,12,1)
      - 65 x(1,13,0) - 65 x(1,13,1) - 72 x(1,14,0) - 72 x(1,14,1)
      - 25 x(1,17,0) - 25 x(1,17,1) - 33 x(2,10,0) - 33 x(2,10,1)
      - 32 x(2,11,0) - 32 x(2,11,1) - 30 x(2,12,0) - 30 x(2,12,1)
      - 75 x(2,13,0) - 75 x(2,13,1) - 81 x(2,14,0) - 81 x(2,14,1)
      - 29 x(2,17,0) - 29 x(2,17,1) - 21 x(3,10,0) - 21 x(3,10,1)
      - 17 x(3,11,0) - 17 x(3,11,1) - 16 x(3,12,0) - 16 x(3,12,1)
      - 30 x(3,13,0) - 30 x(3,13,1) - 33 x(3,14,0) - 33 x(3,14,1) - 2 x(3,17,0)
      - 2 x(3,17,1) - 21 x(4,10,0) - 21 x(4,10,1) - 19 x(4,11,0) - 19 x(4,11,1)
      - 16 x(4,12,0) - 16 x(4,12,1) - 36 x(4,13,0) - 36 x(4,13,1)
      - 33 x(4,14,0) - 33 x(4,14,1) - x(4,17,0) - x(4,17,1) - 8 x(5,0,0)
      - 8 x(5,0,1) - 11 x(5,3,0) - 11 x(5,3,1) - 4 x(5,4,0) - 4 x(5,4,1)
      - 25 x(5,10,0) - 25 x(5,10,1) - 22 x(5,11,0) - 22 x(5,11,1)
      - 21 x(5,12,0) - 21 x(5,12,1) - 35 x(5,13,0) - 35 x(5,13,1)
      - 27 x(5,14,0) - 27 x(5,14,1) - 55 x(6,0,0) - 55 x(6,0,1) - 67 x(6,1,0)
      - 67 x(6,1,1) - 72 x(6,2,0) - 72 x(6,2,1) - 55 x(6,3,0) - 55 x(6,3,1)
      - 63 x(6,4,0) - 63 x(6,4,1) - 43 x(6,10,0) - 43 x(6,10,1) - 39 x(6,11,0)
      - 39 x(6,11,1) - 40 x(6,12,0) - 40 x(6,12,1) - 79 x(6,13,0)
      - 79 x(6,13,1) - 86 x(6,14,0) - 86 x(6,14,1) - 39 x(6,17,0)
      - 39 x(6,17,1) - 61 x(7,0,0) - 61 x(7,0,1) - 70 x(7,1,0) - 70 x(7,1,1)
      - 72 x(7,2,0) - 72 x(7,2,1) - 61 x(7,3,0) - 61 x(7,3,1) - 68 x(7,4,0)
      - 68 x(7,4,1) - 43 x(7,10,0) - 43 x(7,10,1) - 42 x(7,11,0) - 42 x(7,11,1)
      - 40 x(7,12,0) - 40 x(7,12,1) - 85 x(7,13,0) - 85 x(7,13,1)
      - 91 x(7,14,0) - 91 x(7,14,1) - 39 x(7,17,0) - 39 x(7,17,1) - 11 x(8,0,0)
      - 11 x(8,0,1) - 12 x(8,3,0) - 12 x(8,3,1) - 16 x(8,4,0) - 16 x(8,4,1)
      - 27 x(8,10,0) - 27 x(8,10,1) - 23 x(8,11,0) - 23 x(8,11,1)
      - 22 x(8,12,0) - 22 x(8,12,1) - 36 x(8,13,0) - 36 x(8,13,1)
      - 39 x(8,14,0) - 39 x(8,14,1) - 8 x(8,17,0) - 8 x(8,17,1) + 2 x(9,0,0)
      + 2 x(9,0,1) + 2 x(9,4,0) + 2 x(9,4,1) - 9 x(9,10,0) - 9 x(9,10,1)
      - 7 x(9,11,0) - 7 x(9,11,1) - 4 x(9,12,0) - 4 x(9,12,1) - 24 x(9,13,0)
      - 24 x(9,13,1) - 21 x(9,14,0) - 21 x(9,14,1) + 11 x(9,17,0)
      + 11 x(9,17,1) + 3 x(11,17,0) + 3 x(11,17,1) + 3 x(12,17,0)
      + 3 x(12,17,1) - 26 x(13,17,0) - 26 x(13,17,1) - 24 x(14,17,0)
      - 24 x(14,17,1) - 6 x(15,0,0) - 6 x(15,0,1) - 50 x(15,1,0) - 50 x(15,1,1)
      - 53 x(15,2,0) - 53 x(15,2,1) - 10 x(15,3,0) - 10 x(15,3,1) - 3 x(15,4,0)
      - 3 x(15,4,1) - 2 x(15,5,0) - 2 x(15,5,1) - 64 x(15,6,0) - 64 x(15,6,1)
      - 63 x(15,7,0) - 63 x(15,7,1) - 16 x(15,8,0) - 16 x(15,8,1) + 9 x(15,9,0)
      + 9 x(15,9,1) - 26 x(15,10,0) - 26 x(15,10,1) - 22 x(15,11,0)
      - 22 x(15,11,1) - 21 x(15,12,0) - 21 x(15,12,1) - 34 x(15,13,0)
      - 34 x(15,13,1) - 26 x(15,14,0) - 26 x(15,14,1) - 23 x(16,0,0)
      - 23 x(16,0,1) - 29 x(16,1,0) - 29 x(16,1,1) - 36 x(16,2,0)
      - 36 x(16,2,1) - 23 x(16,3,0) - 23 x(16,3,1) - 30 x(16,4,0)
      - 30 x(16,4,1) - 28 x(16,5,0) - 28 x(16,5,1) - 43 x(16,6,0)
      - 43 x(16,6,1) - 46 x(16,7,0) - 46 x(16,7,1) - 29 x(16,8,0)
      - 29 x(16,8,1) - 18 x(16,9,0) - 18 x(16,9,1) - 5 x(16,10,0)
      - 5 x(16,10,1) - x(16,11,0) - x(16,11,1) - 4 x(16,12,0) - 4 x(16,12,1)
      - 47 x(16,13,0) - 47 x(16,13,1) - 53 x(16,14,0) - 53 x(16,14,1)
Subject To
 Constraint1_0:    x(0,10,0) + x(0,10,1) + x(0,11,0) + x(0,11,1) + x(0,12,0)
                   + x(0,12,1) + x(0,13,0) + x(0,13,1) + x(0,14,0) + x(0,14,1)
                   + x(0,17,0) + x(0,17,1)  = 1
 Constraint1_1:    x(1,10,0) + x(1,10,1) + x(1,11,0) + x(1,11,1) + x(1,12,0)
                   + x(1,12,1) + x(1,13,0) + x(1,13,1) + x(1,14,0) + x(1,14,1)
                   + x(1,17,0) + x(1,17,1)  = 1
 Constraint1_2:    x(2,10,0) + x(2,10,1) + x(2,11,0) + x(2,11,1) + x(2,12,0)
                   + x(2,12,1) + x(2,13,0) + x(2,13,1) + x(2,14,0) + x(2,14,1)
                   + x(2,17,0) + x(2,17,1)  = 1
 Constraint1_3:    x(3,10,0) + x(3,10,1) + x(3,11,0) + x(3,11,1) + x(3,12,0)
                   + x(3,12,1) + x(3,13,0) + x(3,13,1) + x(3,14,0) + x(3,14,1)
                   + x(3,17,0) + x(3,17,1)  = 1
 Constraint1_4:    x(4,10,0) + x(4,10,1) + x(4,11,0) + x(4,11,1) + x(4,12,0)
                   + x(4,12,1) + x(4,13,0) + x(4,13,1) + x(4,14,0) + x(4,14,1)
                   + x(4,17,0) + x(4,17,1)  = 1
 Constraint1_5:    x(5,0,0) + x(5,0,1) + x(5,3,0) + x(5,3,1) + x(5,4,0)
                   + x(5,4,1) + x(5,10,0) + x(5,10,1) + x(5,11,0) + x(5,11,1)
                   + x(5,12,0) + x(5,12,1) + x(5,13,0) + x(5,13,1) + x(5,14,0)
                   + x(5,14,1) + x(5,17,0) + x(5,17,1)  = 1
 Constraint1_6:    x(6,0,0) + x(6,0,1) + x(6,1,0) + x(6,1,1) + x(6,2,0)
                   + x(6,2,1) + x(6,3,0) + x(6,3,1) + x(6,4,0) + x(6,4,1)
                   + x(6,10,0) + x(6,10,1) + x(6,11,0) + x(6,11,1) + x(6,12,0)
                   + x(6,12,1) + x(6,13,0) + x(6,13,1) + x(6,14,0) + x(6,14,1)
                   + x(6,17,0) + x(6,17,1)  = 1
 Constraint1_7:    x(7,0,0) + x(7,0,1) + x(7,1,0) + x(7,1,1) + x(7,2,0)
                   + x(7,2,1) + x(7,3,0) + x(7,3,1) + x(7,4,0) + x(7,4,1)
                   + x(7,10,0) + x(7,10,1) + x(7,11,0) + x(7,11,1) + x(7,12,0)
                   + x(7,12,1) + x(7,13,0) + x(7,13,1) + x(7,14,0) + x(7,14,1)
                   + x(7,17,0) + x(7,17,1)  = 1
 Constraint1_8:    x(8,0,0) + x(8,0,1) + x(8,3,0) + x(8,3,1) + x(8,4,0)
                   + x(8,4,1) + x(8,10,0) + x(8,10,1) + x(8,11,0) + x(8,11,1)
                   + x(8,12,0) + x(8,12,1) + x(8,13,0) + x(8,13,1) + x(8,14,0)
                   + x(8,14,1) + x(8,17,0) + x(8,17,1)  = 1
 Constraint1_9:    x(9,0,0) + x(9,0,1) + x(9,3,0) + x(9,3,1) + x(9,4,0)
                   + x(9,4,1) + x(9,10,0) + x(9,10,1) + x(9,11,0) + x(9,11,1)
                   + x(9,12,0) + x(9,12,1) + x(9,13,0) + x(9,13,1) + x(9,14,0)
                   + x(9,14,1) + x(9,17,0) + x(9,17,1)  = 1
 Constraint1_10:   x(10,17,0) + x(10,17,1)  = 1
 Constraint1_11:   x(11,17,0) + x(11,17,1)  = 1
 Constraint1_12:   x(12,17,0) + x(12,17,1)  = 1
 Constraint1_13:   x(13,17,0) + x(13,17,1)  = 1
 Constraint1_14:   x(14,17,0) + x(14,17,1)  = 1
 Constraint2_0:    x(5,0,0) + x(5,0,1) + x(6,0,0) + x(6,0,1) + x(7,0,0)
                   + x(7,0,1) + x(8,0,0) + x(8,0,1) + x(9,0,0) + x(9,0,1)
                   + x(15,0,0) + x(15,0,1) + x(16,0,0) + x(16,0,1)  = 1
 Constraint2_1:    x(6,1,0) + x(6,1,1) + x(7,1,0) + x(7,1,1) + x(15,1,0)
                   + x(15,1,1) + x(16,1,0) + x(16,1,1)  = 1
 Constraint2_2:    x(6,2,0) + x(6,2,1) + x(7,2,0) + x(7,2,1) + x(15,2,0)
                   + x(15,2,1) + x(16,2,0) + x(16,2,1)  = 1
 Constraint2_3:    x(5,3,0) + x(5,3,1) + x(6,3,0) + x(6,3,1) + x(7,3,0)
                   + x(7,3,1) + x(8,3,0) + x(8,3,1) + x(9,3,0) + x(9,3,1)
                   + x(15,3,0) + x(15,3,1) + x(16,3,0) + x(16,3,1)  = 1
 Constraint2_4:    x(5,4,0) + x(5,4,1) + x(6,4,0) + x(6,4,1) + x(7,4,0)
                   + x(7,4,1) + x(8,4,0) + x(8,4,1) + x(9,4,0) + x(9,4,1)
                   + x(15,4,0) + x(15,4,1) + x(16,4,0) + x(16,4,1)  = 1
 Constraint2_5:    x(15,5,0) + x(15,5,1) + x(16,5,0) + x(16,5,1)  = 1
 Constraint2_6:    x(15,6,0) + x(15,6,1) + x(16,6,0) + x(16,6,1)  = 1
 Constraint2_7:    x(15,7,0) + x(15,7,1) + x(16,7,0) + x(16,7,1)  = 1
 Constraint2_8:    x(15,8,0) + x(15,8,1) + x(16,8,0) + x(16,8,1)  = 1
 Constraint2_9:    x(15,9,0) + x(15,9,1) + x(16,9,0) + x(16,9,1)  = 1
 Constraint2_10:   x(0,10,0) + x(0,10,1) + x(1,10,0) + x(1,10,1) + x(2,10,0)
                   + x(2,10,1) + x(3,10,0) + x(3,10,1) + x(4,10,0) + x(4,10,1)
                   + x(5,10,0) + x(5,10,1) + x(6,10,0) + x(6,10,1) + x(7,10,0)
                   + x(7,10,1) + x(8,10,0) + x(8,10,1) + x(9,10,0) + x(9,10,1)
                   + x(15,10,0) + x(15,10,1) + x(16,10,0) + x(16,10,1)  = 1
 Constraint2_11:   x(0,11,0) + x(0,11,1) + x(1,11,0) + x(1,11,1) + x(2,11,0)
                   + x(2,11,1) + x(3,11,0) + x(3,11,1) + x(4,11,0) + x(4,11,1)
                   + x(5,11,0) + x(5,11,1) + x(6,11,0) + x(6,11,1) + x(7,11,0)
                   + x(7,11,1) + x(8,11,0) + x(8,11,1) + x(9,11,0) + x(9,11,1)
                   + x(15,11,0) + x(15,11,1) + x(16,11,0) + x(16,11,1)  = 1
 Constraint2_12:   x(0,12,0) + x(0,12,1) + x(1,12,0) + x(1,12,1) + x(2,12,0)
                   + x(2,12,1) + x(3,12,0) + x(3,12,1) + x(4,12,0) + x(4,12,1)
                   + x(5,12,0) + x(5,12,1) + x(6,12,0) + x(6,12,1) + x(7,12,0)
                   + x(7,12,1) + x(8,12,0) + x(8,12,1) + x(9,12,0) + x(9,12,1)
                   + x(15,12,0) + x(15,12,1) + x(16,12,0) + x(16,12,1)  = 1
 Constraint2_13:   x(0,13,0) + x(0,13,1) + x(1,13,0) + x(1,13,1) + x(2,13,0)
                   + x(2,13,1) + x(3,13,0) + x(3,13,1) + x(4,13,0) + x(4,13,1)
                   + x(5,13,0) + x(5,13,1) + x(6,13,0) + x(6,13,1) + x(7,13,0)
                   + x(7,13,1) + x(8,13,0) + x(8,13,1) + x(9,13,0) + x(9,13,1)
                   + x(15,13,0) + x(15,13,1) + x(16,13,0) + x(16,13,1)  = 1
 Constraint2_14:   x(0,14,0) + x(0,14,1) + x(1,14,0) + x(1,14,1) + x(2,14,0)
                   + x(2,14,1) + x(3,14,0) + x(3,14,1) + x(4,14,0) + x(4,14,1)
                   + x(5,14,0) + x(5,14,1) + x(6,14,0) + x(6,14,1) + x(7,14,0)
                   + x(7,14,1) + x(8,14,0) + x(8,14,1) + x(9,14,0) + x(9,14,1)
                   + x(15,14,0) + x(15,14,1) + x(16,14,0) + x(16,14,1)  = 1
 Constraint3_0:    x(15,0,0) + x(15,1,0) + x(15,2,0) + x(15,3,0) + x(15,4,0)
                   + x(15,5,0) + x(15,6,0) + x(15,7,0) + x(15,8,0) + x(15,9,0)
                   + x(15,10,0) + x(15,11,0) + x(15,12,0) + x(15,13,0)
                   + x(15,14,0)  = 1
 Constraint3_1:    x(16,0,1) + x(16,1,1) + x(16,2,1) + x(16,3,1) + x(16,4,1)
                   + x(16,5,1) + x(16,6,1) + x(16,7,1) + x(16,8,1) + x(16,9,1)
                   + x(16,10,1) + x(16,11,1) + x(16,12,1) + x(16,13,1)
                   + x(16,14,1)  = 1
 Constraint4_0:    x(0,17,0) + x(1,17,0) + x(2,17,0) + x(3,17,0) + x(4,17,0)
                   + x(5,17,0) + x(6,17,0) + x(7,17,0) + x(8,17,0) + x(9,17,0)
                   + x(10,17,0) + x(11,17,0) + x(12,17,0) + x(13,17,0)
                   + x(14,17,0)  = 1
 Constraint4_1:    x(0,17,1) + x(1,17,1) + x(2,17,1) + x(3,17,1) + x(4,17,1)
                   + x(5,17,1) + x(6,17,1) + x(7,17,1) + x(8,17,1) + x(9,17,1)
                   + x(10,17,1) + x(11,17,1) + x(12,17,1) + x(13,17,1)
                   + x(14,17,1)  = 1
 Constraint5_3:    x(1,10,0) + x(1,10,1) + x(1,11,0) + x(1,11,1) + x(1,12,0)
                   + x(1,12,1) + x(1,13,0) + x(1,13,1) + x(1,14,0) + x(1,14,1)
                   + x(1,17,0) + x(1,17,1) + x(6,0,0) + x(6,0,1) + x(6,1,0)
                   + x(6,1,1) + x(6,2,0) + x(6,2,1) + x(6,3,0) + x(6,3,1)
                   + x(6,4,0) + x(6,4,1) + x(6,10,0) + x(6,10,1) + x(6,11,0)
                   + x(6,11,1) + x(6,12,0) + x(6,12,1) + x(6,13,0) + x(6,13,1)
                   + x(6,14,0) + x(6,14,1) + x(6,17,0) + x(6,17,1) + x(11,17,0)
                   + x(11,17,1) <= 1
 Constraint5_4:    x(2,10,0) + x(2,10,1) + x(2,11,0) + x(2,11,1) + x(2,12,0)
                   + x(2,12,1) + x(2,13,0) + x(2,13,1) + x(2,14,0) + x(2,14,1)
                   + x(2,17,0) + x(2,17,1) + x(7,0,0) + x(7,0,1) + x(7,1,0)
                   + x(7,1,1) + x(7,2,0) + x(7,2,1) + x(7,3,0) + x(7,3,1)
                   + x(7,4,0) + x(7,4,1) + x(7,10,0) + x(7,10,1) + x(7,11,0)
                   + x(7,11,1) + x(7,12,0) + x(7,12,1) + x(7,13,0) + x(7,13,1)
                   + x(7,14,0) + x(7,14,1) + x(7,17,0) + x(7,17,1) + x(12,17,0)
                   + x(12,17,1) <= 1
 Constraint5_5:    x(3,10,0) + x(3,10,1) + x(3,11,0) + x(3,11,1) + x(3,12,0)
                   + x(3,12,1) + x(3,13,0) + x(3,13,1) + x(3,14,0) + x(3,14,1)
                   + x(3,17,0) + x(3,17,1) + x(8,0,0) + x(8,0,1) + x(8,3,0)
                   + x(8,3,1) + x(8,4,0) + x(8,4,1) + x(8,10,0) + x(8,10,1)
                   + x(8,11,0) + x(8,11,1) + x(8,12,0) + x(8,12,1) + x(8,13,0)
                   + x(8,13,1) + x(8,14,0) + x(8,14,1) + x(8,17,0) + x(8,17,1)
                   + x(13,17,0) + x(13,17,1) <= 1
 Constraint5_6:    x(4,10,0) + x(4,10,1) + x(4,11,0) + x(4,11,1) + x(4,12,0)
                   + x(4,12,1) + x(4,13,0) + x(4,13,1) + x(4,14,0) + x(4,14,1)
                   + x(4,17,0) + x(4,17,1) + x(9,0,0) + x(9,0,1) + x(9,3,0)
                   + x(9,3,1) + x(9,4,0) + x(9,4,1) + x(9,10,0) + x(9,10,1)
                   + x(9,11,0) + x(9,11,1) + x(9,12,0) + x(9,12,1) + x(9,13,0)
                   + x(9,13,1) + x(9,14,0) + x(9,14,1) + x(9,17,0) + x(9,17,1)
                   + x(14,17,0) + x(14,17,1) <= 1
 Constraint6_0_0:  x(0,10,0) + x(0,11,0) + x(0,12,0) + x(0,13,0) + x(0,14,0)
                   + x(0,17,0) - x(5,0,0) - x(6,0,0) - x(7,0,0) - x(8,0,0)
                   - x(9,0,0) - x(15,0,0) - x(16,0,0)  = 0
 Constraint6_0_1:  x(0,10,1) + x(0,11,1) + x(0,12,1) + x(0,13,1) + x(0,14,1)
                   + x(0,17,1) - x(5,0,1) - x(6,0,1) - x(7,0,1) - x(8,0,1)
                   - x(9,0,1) - x(15,0,1) - x(16,0,1)  = 0
 Constraint6_1_0:  x(1,10,0) + x(1,11,0) + x(1,12,0) + x(1,13,0) + x(1,14,0)
                   + x(1,17,0) - x(6,1,0) - x(7,1,0) - x(15,1,0) - x(16,1,0)
                    = 0
 Constraint6_1_1:  x(1,10,1) + x(1,11,1) + x(1,12,1) + x(1,13,1) + x(1,14,1)
                   + x(1,17,1) - x(6,1,1) - x(7,1,1) - x(15,1,1) - x(16,1,1)
                    = 0
 Constraint6_2_0:  x(2,10,0) + x(2,11,0) + x(2,12,0) + x(2,13,0) + x(2,14,0)
                   + x(2,17,0) - x(6,2,0) - x(7,2,0) - x(15,2,0) - x(16,2,0)
                    = 0
 Constraint6_2_1:  x(2,10,1) + x(2,11,1) + x(2,12,1) + x(2,13,1) + x(2,14,1)
                   + x(2,17,1) - x(6,2,1) - x(7,2,1) - x(15,2,1) - x(16,2,1)
                    = 0
 Constraint6_3_0:  x(3,10,0) + x(3,11,0) + x(3,12,0) + x(3,13,0) + x(3,14,0)
                   + x(3,17,0) - x(5,3,0) - x(6,3,0) - x(7,3,0) - x(8,3,0)
                   - x(9,3,0) - x(15,3,0) - x(16,3,0)  = 0
 Constraint6_3_1:  x(3,10,1) + x(3,11,1) + x(3,12,1) + x(3,13,1) + x(3,14,1)
                   + x(3,17,1) - x(5,3,1) - x(6,3,1) - x(7,3,1) - x(8,3,1)
                   - x(9,3,1) - x(15,3,1) - x(16,3,1)  = 0
 Constraint6_4_0:  x(4,10,0) + x(4,11,0) + x(4,12,0) + x(4,13,0) + x(4,14,0)
                   + x(4,17,0) - x(5,4,0) - x(6,4,0) - x(7,4,0) - x(8,4,0)
                   - x(9,4,0) - x(15,4,0) - x(16,4,0)  = 0
 Constraint6_4_1:  x(4,10,1) + x(4,11,1) + x(4,12,1) + x(4,13,1) + x(4,14,1)
                   + x(4,17,1) - x(5,4,1) - x(6,4,1) - x(7,4,1) - x(8,4,1)
                   - x(9,4,1) - x(15,4,1) - x(16,4,1)  = 0
 Constraint6_5_0:  x(5,0,0) + x(5,3,0) + x(5,4,0) + x(5,10,0) + x(5,11,0)
                   + x(5,12,0) + x(5,13,0) + x(5,14,0) + x(5,17,0) - x(15,5,0)
                   - x(16,5,0)  = 0
 Constraint6_5_1:  x(5,0,1) + x(5,3,1) + x(5,4,1) + x(5,10,1) + x(5,11,1)
                   + x(5,12,1) + x(5,13,1) + x(5,14,1) + x(5,17,1) - x(15,5,1)
                   - x(16,5,1)  = 0
 Constraint6_6_0:  x(6,0,0) + x(6,1,0) + x(6,2,0) + x(6,3,0) + x(6,4,0)
                   + x(6,10,0) + x(6,11,0) + x(6,12,0) + x(6,13,0) + x(6,14,0)
                   + x(6,17,0) - x(15,6,0) - x(16,6,0)  = 0
 Constraint6_6_1:  x(6,0,1) + x(6,1,1) + x(6,2,1) + x(6,3,1) + x(6,4,1)
                   + x(6,10,1) + x(6,11,1) + x(6,12,1) + x(6,13,1) + x(6,14,1)
                   + x(6,17,1) - x(15,6,1) - x(16,6,1)  = 0
 Constraint6_7_0:  x(7,0,0) + x(7,1,0) + x(7,2,0) + x(7,3,0) + x(7,4,0)
                   + x(7,10,0) + x(7,11,0) + x(7,12,0) + x(7,13,0) + x(7,14,0)
                   + x(7,17,0) - x(15,7,0) - x(16,7,0)  = 0
 Constraint6_7_1:  x(7,0,1) + x(7,1,1) + x(7,2,1) + x(7,3,1) + x(7,4,1)
                   + x(7,10,1) + x(7,11,1) + x(7,12,1) + x(7,13,1) + x(7,14,1)
                   + x(7,17,1) - x(15,7,1) - x(16,7,1)  = 0
 Constraint6_8_0:  x(8,0,0) + x(8,3,0) + x(8,4,0) + x(8,10,0) + x(8,11,0)
                   + x(8,12,0) + x(8,13,0) + x(8,14,0) + x(8,17,0) - x(15,8,0)
                   - x(16,8,0)  = 0
 Constraint6_8_1:  x(8,0,1) + x(8,3,1) + x(8,4,1) + x(8,10,1) + x(8,11,1)
                   + x(8,12,1) + x(8,13,1) + x(8,14,1) + x(8,17,1) - x(15,8,1)
                   - x(16,8,1)  = 0
 Constraint6_9_0:  x(9,0,0) + x(9,3,0) + x(9,4,0) + x(9,10,0) + x(9,11,0)
                   + x(9,12,0) + x(9,13,0) + x(9,14,0) + x(9,17,0) - x(15,9,0)
                   - x(16,9,0)  = 0
 Constraint6_9_1:  x(9,0,1) + x(9,3,1) + x(9,4,1) + x(9,10,1) + x(9,11,1)
                   + x(9,12,1) + x(9,13,1) + x(9,14,1) + x(9,17,1) - x(15,9,1)
                   - x(16,9,1)  = 0
 Constraint6_10_0: - x(0,10,0) - x(1,10,0) - x(2,10,0) - x(3,10,0) - x(4,10,0)
                   - x(5,10,0) - x(6,10,0) - x(7,10,0) - x(8,10,0) - x(9,10,0)
                   + x(10,17,0) - x(15,10,0) - x(16,10,0)  = 0
 Constraint6_10_1: - x(0,10,1) - x(1,10,1) - x(2,10,1) - x(3,10,1) - x(4,10,1)
                   - x(5,10,1) - x(6,10,1) - x(7,10,1) - x(8,10,1) - x(9,10,1)
                   + x(10,17,1) - x(15,10,1) - x(16,10,1)  = 0
 Constraint6_11_0: - x(0,11,0) - x(1,11,0) - x(2,11,0) - x(3,11,0) - x(4,11,0)
                   - x(5,11,0) - x(6,11,0) - x(7,11,0) - x(8,11,0) - x(9,11,0)
                   + x(11,17,0) - x(15,11,0) - x(16,11,0)  = 0
 Constraint6_11_1: - x(0,11,1) - x(1,11,1) - x(2,11,1) - x(3,11,1) - x(4,11,1)
                   - x(5,11,1) - x(6,11,1) - x(7,11,1) - x(8,11,1) - x(9,11,1)
                   + x(11,17,1) - x(15,11,1) - x(16,11,1)  = 0
 Constraint6_12_0: - x(0,12,0) - x(1,12,0) - x(2,12,0) - x(3,12,0) - x(4,12,0)
                   - x(5,12,0) - x(6,12,0) - x(7,12,0) - x(8,12,0) - x(9,12,0)
                   + x(12,17,0) - x(15,12,0) - x(16,12,0)  = 0
 Constraint6_12_1: - x(0,12,1) - x(1,12,1) - x(2,12,1) - x(3,12,1) - x(4,12,1)
                   - x(5,12,1) - x(6,12,1) - x(7,12,1) - x(8,12,1) - x(9,12,1)
                   + x(12,17,1) - x(15,12,1) - x(16,12,1)  = 0
 Constraint6_13_0: - x(0,13,0) - x(1,13,0) - x(2,13,0) - x(3,13,0) - x(4,13,0)
                   - x(5,13,0) - x(6,13,0) - x(7,13,0) - x(8,13,0) - x(9,13,0)
                   + x(13,17,0) - x(15,13,0) - x(16,13,0)  = 0
 Constraint6_13_1: - x(0,13,1) - x(1,13,1) - x(2,13,1) - x(3,13,1) - x(4,13,1)
                   - x(5,13,1) - x(6,13,1) - x(7,13,1) - x(8,13,1) - x(9,13,1)
                   + x(13,17,1) - x(15,13,1) - x(16,13,1)  = 0
 Constraint6_14_0: - x(0,14,0) - x(1,14,0) - x(2,14,0) - x(3,14,0) - x(4,14,0)
                   - x(5,14,0) - x(6,14,0) - x(7,14,0) - x(8,14,0) - x(9,14,0)
                   + x(14,17,0) - x(15,14,0) - x(16,14,0)  = 0
 Constraint6_14_1: - x(0,14,1) - x(1,14,1) - x(2,14,1) - x(3,14,1) - x(4,14,1)
                   - x(5,14,1) - x(6,14,1) - x(7,14,1) - x(8,14,1) - x(9,14,1)
                   + x(14,17,1) - x(15,14,1) - x(16,14,1)  = 0
Bounds
 0 <= x(0,10,0) <= 1
 0 <= x(0,10,1) <= 1
 0 <= x(0,11,0) <= 1
 0 <= x(0,11,1) <= 1
 0 <= x(0,12,0) <= 1
 0 <= x(0,12,1) <= 1
 0 <= x(0,13,0) <= 1
 0 <= x(0,13,1) <= 1
 0 <= x(0,14,0) <= 1
 0 <= x(0,14,1) <= 1
 0 <= x(0,17,0) <= 1
 0 <= x(0,17,1) <= 1
 0 <= x(1,10,0) <= 1
 0 <= x(1,10,1) <= 1
 0 <= x(1,11,0) <= 1
 0 <= x(1,11,1) <= 1
 0 <= x(1,12,0) <= 1
 0 <= x(1,12,1) <= 1
 0 <= x(1,13,0) <= 1
 0 <= x(1,13,1) <= 1
 0 <= x(1,14,0) <= 1
 0 <= x(1,14,1) <= 1
 0 <= x(1,17,0) <= 1
 0 <= x(1,17,1) <= 1
 0 <= x(2,10,0) <= 1
 0 <= x(2,10,1) <= 1
 0 <= x(2,11,0) <= 1
 0 <= x(2,11,1) <= 1
 0 <= x(2,12,0) <= 1
 0 <= x(2,12,1) <= 1
 0 <= x(2,13,0) <= 1
 0 <= x(2,13,1) <= 1
 0 <= x(2,14,0) <= 1
 0 <= x(2,14,1) <= 1
 0 <= x(2,17,0) <= 1
 0 <= x(2,17,1) <= 1
 0 <= x(3,10,0) <= 1
 0 <= x(3,10,1) <= 1
 0 <= x(3,11,0) <= 1
 0 <= x(3,11,1) <= 1
 0 <= x(3,12,0) <= 1
 0 <= x(3,12,1) <= 1
 0 <= x(3,13,0) <= 1
 0 <= x(3,13,1) <= 1
 0 <= x(3,14,0) <= 1
 0 <= x(3,14,1) <= 1
 0 <= x(3,17,0) <= 1
 0 <= x(3,17,1) <= 1
 0 <= x(4,10,0) <= 1
 0 <= x(4,10,1) <= 1
 0 <= x(4,11,0) <= 1
 0 <= x(4,11,1) <= 1
 0 <= x(4,12,0) <= 1
 0 <= x(4,12,1) <= 1
 0 <= x(4,13,0) <= 1
 0 <= x(4,13,1) <= 1
 0 <= x(4,14,0) <= 1
 0 <= x(4,14,1) <= 1
 0 <= x(4,17,0) <= 1
 0 <= x(4,17,1) <= 1
 0 <= x(5,0,0) <= 1
 0 <= x(5,0,1) <= 1
 0 <= x(5,3,0) <= 1
 0 <= x(5,3,1) <= 1
 0 <= x(5,4,0) <= 1
 0 <= x(5,4,1) <= 1
 0 <= x(5,10,0) <= 1
 0 <= x(5,10,1) <= 1
 0 <= x(5,11,0) <= 1
 0 <= x(5,11,1) <= 1
 0 <= x(5,12,0) <= 1
 0 <= x(5,12,1) <= 1
 0 <= x(5,13,0) <= 1
 0 <= x(5,13,1) <= 1
 0 <= x(5,14,0) <= 1
 0 <= x(5,14,1) <= 1
 0 <= x(5,17,0) <= 1
 0 <= x(5,17,1) <= 1
 0 <= x(6,0,0) <= 1
 0 <= x(6,0,1) <= 1
 0 <= x(6,1,0) <= 1
 0 <= x(6,1,1) <= 1
 0 <= x(6,2,0) <= 1
 0 <= x(6,2,1) <= 1
 0 <= x(6,3,0) <= 1
 0 <= x(6,3,1) <= 1
 0 <= x(6,4,0) <= 1
 0 <= x(6,4,1) <= 1
 0 <= x(6,10,0) <= 1
 0 <= x(6,10,1) <= 1
 0 <= x(6,11,0) <= 1
 0 <= x(6,11,1) <= 1
 0 <= x(6,12,0) <= 1
 0 <= x(6,12,1) <= 1
 0 <= x(6,13,0) <= 1
 0 <= x(6,13,1) <= 1
 0 <= x(6,14,0) <= 1
 0 <= x(6,14,1) <= 1
 0 <= x(6,17,0) <= 1
 0 <= x(6,17,1) <= 1
 0 <= x(7,0,0) <= 1
 0 <= x(7,0,1) <= 1
 0 <= x(7,1,0) <= 1
 0 <= x(7,1,1) <= 1
 0 <= x(7,2,0) <= 1
 0 <= x(7,2,1) <= 1
 0 <= x(7,3,0) <= 1
 0 <= x(7,3,1) <= 1
 0 <= x(7,4,0) <= 1
 0 <= x(7,4,1) <= 1
 0 <= x(7,10,0) <= 1
 0 <= x(7,10,1) <= 1
 0 <= x(7,11,0) <= 1
 0 <= x(7,11,1) <= 1
 0 <= x(7,12,0) <= 1
 0 <= x(7,12,1) <= 1
 0 <= x(7,13,0) <= 1
 0 <= x(7,13,1) <= 1
 0 <= x(7,14,0) <= 1
 0 <= x(7,14,1) <= 1
 0 <= x(7,17,0) <= 1
 0 <= x(7,17,1) <= 1
 0 <= x(8,0,0) <= 1
 0 <= x(8,0,1) <= 1
 0 <= x(8,3,0) <= 1
 0 <= x(8,3,1) <= 1
 0 <= x(8,4,0) <= 1
 0 <= x(8,4,1) <= 1
 0 <= x(8,10,0) <= 1
 0 <= x(8,10,1) <= 1
 0 <= x(8,11,0) <= 1
 0 <= x(8,11,1) <= 1
 0 <= x(8,12,0) <= 1
 0 <= x(8,12,1) <= 1
 0 <= x(8,13,0) <= 1
 0 <= x(8,13,1) <= 1
 0 <= x(8,14,0) <= 1
 0 <= x(8,14,1) <= 1
 0 <= x(8,17,0) <= 1
 0 <= x(8,17,1) <= 1
 0 <= x(9,0,0) <= 1
 0 <= x(9,0,1) <= 1
 0 <= x(9,3,0) <= 1
 0 <= x(9,3,1) <= 1
 0 <= x(9,4,0) <= 1
 0 <= x(9,4,1) <= 1
 0 <= x(9,10,0) <= 1
 0 <= x(9,10,1) <= 1
 0 <= x(9,11,0) <= 1
 0 <= x(9,11,1) <= 1
 0 <= x(9,12,0) <= 1
 0 <= x(9,12,1) <= 1
 0 <= x(9,13,0) <= 1
 0 <= x(9,13,1) <= 1
 0 <= x(9,14,0) <= 1
 0 <= x(9,14,1) <= 1
 0 <= x(9,17,0) <= 1
 0 <= x(9,17,1) <= 1
 0 <= x(10,17,0) <= 1
 0 <= x(10,17,1) <= 1
 0 <= x(11,17,0) <= 1
 0 <= x(11,17,1) <= 1
 0 <= x(12,17,0) <= 1
 0 <= x(12,17,1) <= 1
 0 <= x(13,17,0) <= 1
 0 <= x(13,17,1) <= 1
 0 <= x(14,17,0) <= 1
 0 <= x(14,17,1) <= 1
 0 <= x(15,0,0) <= 1
 0 <= x(15,0,1) <= 1
 0 <= x(15,1,0) <= 1
 0 <= x(15,1,1) <= 1
 0 <= x(15,2,0) <= 1
 0 <= x(15,2,1) <= 1
 0 <= x(15,3,0) <= 1
 0 <= x(15,3,1) <= 1
 0 <= x(15,4,0) <= 1
 0 <= x(15,4,1) <= 1
 0 <= x(15,5,0) <= 1
 0 <= x(15,5,1) <= 1
 0 <= x(15,6,0) <= 1
 0 <= x(15,6,1) <= 1
 0 <= x(15,7,0) <= 1
 0 <= x(15,7,1) <= 1
 0 <= x(15,8,0) <= 1
 0 <= x(15,8,1) <= 1
 0 <= x(15,9,0) <= 1
 0 <= x(15,9,1) <= 1
 0 <= x(15,10,0) <= 1
 0 <= x(15,10,1) <= 1
 0 <= x(15,11,0) <= 1
 0 <= x(15,11,1) <= 1
 0 <= x(15,12,0) <= 1
 0 <= x(15,12,1) <= 1
 0 <= x(15,13,0) <= 1
 0 <= x(15,13,1) <= 1
 0 <= x(15,14,0) <= 1
 0 <= x(15,14,1) <= 1
 0 <= x(16,0,0) <= 1
 0 <= x(16,0,1) <= 1
 0 <= x(16,1,0) <= 1
 0 <= x(16,1,1) <= 1
 0 <= x(16,2,0) <= 1
 0 <= x(16,2,1) <= 1
 0 <= x(16,3,0) <= 1
 0 <= x(16,3,1) <= 1
 0 <= x(16,4,0) <= 1
 0 <= x(16,4,1) <= 1
 0 <= x(16,5,0) <= 1
 0 <= x(16,5,1) <= 1
 0 <= x(16,6,0) <= 1
 0 <= x(16,6,1) <= 1
 0 <= x(16,7,0) <= 1
 0 <= x(16,7,1) <= 1
 0 <= x(16,8,0) <= 1
 0 <= x(16,8,1) <= 1
 0 <= x(16,9,0) <= 1
 0 <= x(16,9,1) <= 1
 0 <= x(16,10,0) <= 1
 0 <= x(16,10,1) <= 1
 0 <= x(16,11,0) <= 1
 0 <= x(16,11,1) <= 1
 0 <= x(16,12,0) <= 1
 0 <= x(16,12,1) <= 1
 0 <= x(16,13,0) <= 1
 0 <= x(16,13,1) <= 1
 0 <= x(16,14,0) <= 1
 0 <= x(16,14,1) <= 1
Binaries
 x(0,10,0)  x(0,10,1)  x(0,11,0)  x(0,11,1)  x(0,12,0)  x(0,12,1)  x(0,13,0) 
 x(0,13,1)  x(0,14,0)  x(0,14,1)  x(0,17,0)  x(0,17,1)  x(1,10,0)  x(1,10,1) 
 x(1,11,0)  x(1,11,1)  x(1,12,0)  x(1,12,1)  x(1,13,0)  x(1,13,1)  x(1,14,0) 
 x(1,14,1)  x(1,17,0)  x(1,17,1)  x(2,10,0)  x(2,10,1)  x(2,11,0)  x(2,11,1) 
 x(2,12,0)  x(2,12,1)  x(2,13,0)  x(2,13,1)  x(2,14,0)  x(2,14,1)  x(2,17,0) 
 x(2,17,1)  x(3,10,0)  x(3,10,1)  x(3,11,0)  x(3,11,1)  x(3,12,0)  x(3,12,1) 
 x(3,13,0)  x(3,13,1)  x(3,14,0)  x(3,14,1)  x(3,17,0)  x(3,17,1)  x(4,10,0) 
 x(4,10,1)  x(4,11,0)  x(4,11,1)  x(4,12,0)  x(4,12,1)  x(4,13,0)  x(4,13,1) 
 x(4,14,0)  x(4,14,1)  x(4,17,0)  x(4,17,1)  x(5,0,0)  x(5,0,1)  x(5,3,0) 
 x(5,3,1)  x(5,4,0)  x(5,4,1)  x(5,10,0)  x(5,10,1)  x(5,11,0)  x(5,11,1) 
 x(5,12,0)  x(5,12,1)  x(5,13,0)  x(5,13,1)  x(5,14,0)  x(5,14,1)  x(5,17,0) 
 x(5,17,1)  x(6,0,0)  x(6,0,1)  x(6,1,0)  x(6,1,1)  x(6,2,0)  x(6,2,1) 
 x(6,3,0)  x(6,3,1)  x(6,4,0)  x(6,4,1)  x(6,10,0)  x(6,10,1)  x(6,11,0) 
 x(6,11,1)  x(6,12,0)  x(6,12,1)  x(6,13,0)  x(6,13,1)  x(6,14,0)  x(6,14,1) 
 x(6,17,0)  x(6,17,1)  x(7,0,0)  x(7,0,1)  x(7,1,0)  x(7,1,1)  x(7,2,0) 
 x(7,2,1)  x(7,3,0)  x(7,3,1)  x(7,4,0)  x(7,4,1)  x(7,10,0)  x(7,10,1) 
 x(7,11,0)  x(7,11,1)  x(7,12,0)  x(7,12,1)  x(7,13,0)  x(7,13,1)  x(7,14,0) 
 x(7,14,1)  x(7,17,0)  x(7,17,1)  x(8,0,0)  x(8,0,1)  x(8,3,0)  x(8,3,1) 
 x(8,4,0)  x(8,4,1)  x(8,10,0)  x(8,10,1)  x(8,11,0)  x(8,11,1)  x(8,12,0) 
 x(8,12,1)  x(8,13,0)  x(8,13,1)  x(8,14,0)  x(8,14,1)  x(8,17,0)  x(8,17,1) 
 x(9,0,0)  x(9,0,1)  x(9,3,0)  x(9,3,1)  x(9,4,0)  x(9,4,1)  x(9,10,0) 
 x(9,10,1)  x(9,11,0)  x(9,11,1)  x(9,12,0)  x(9,12,1)  x(9,13,0)  x(9,13,1) 
 x(9,14,0)  x(9,14,1)  x(9,17,0)  x(9,17,1)  x(10,17,0)  x(10,17,1) 
 x(11,17,0)  x(11,17,1)  x(12,17,0)  x(12,17,1)  x(13,17,0)  x(13,17,1) 
 x(14,17,0)  x(14,17,1)  x(15,0,0)  x(15,0,1)  x(15,1,0)  x(15,1,1)  x(15,2,0) 
 x(15,2,1)  x(15,3,0)  x(15,3,1)  x(15,4,0)  x(15,4,1)  x(15,5,0)  x(15,5,1) 
 x(15,6,0)  x(15,6,1)  x(15,7,0)  x(15,7,1)  x(15,8,0)  x(15,8,1)  x(15,9,0) 
 x(15,9,1)  x(15,10,0)  x(15,10,1)  x(15,11,0)  x(15,11,1)  x(15,12,0) 
 x(15,12,1)  x(15,13,0)  x(15,13,1)  x(15,14,0)  x(15,14,1)  x(16,0,0) 
 x(16,0,1)  x(16,1,0)  x(16,1,1)  x(16,2,0)  x(16,2,1)  x(16,3,0)  x(16,3,1) 
 x(16,4,0)  x(16,4,1)  x(16,5,0)  x(16,5,1)  x(16,6,0)  x(16,6,1)  x(16,7,0) 
 x(16,7,1)  x(16,8,0)  x(16,8,1)  x(16,9,0)  x(16,9,1)  x(16,10,0)  x(16,10,1) 
 x(16,11,0)  x(16,11,1)  x(16,12,0)  x(16,12,1)  x(16,13,0)  x(16,13,1) 
 x(16,14,0)  x(16,14,1) 
End
